n_agents = 4;
n_tasks = 3;
n_jobs = 5;

dur = [| 5, 2, 3 | 4, 5, 1 | 3, 4, 2 | 5, 8, 2
       | 3, 8, 2 |];

taskToMach =  [| 3, 1, 2 | 1, 3, 2 | 1, 2, 3 | 1, 3, 2
               |  3, 2, 1 |];

owner = [4, 2, 3, 1, 2];
max_makespan = 23;